/*
param dist_table := [*,*]  BO NY  232
                           NY PH   90
                           PH WA  135 ;

param section := 14 ;

param demand :=

 [WA,*,PH,*]   2  5    .55      6  9    .01      8 11    .01
              10 13    .13     12 15   1.59     13 16   1.69
              14 17   5.19     15 18   3.55     16 19   6.29
              17 20   4.00     18 21   5.80     19 22   3.40
              20 23   4.88     21 24   2.92     22 25   4.37
              23 26   2.80     24 27   4.23     25 28   2.88
              26 29   4.33     27 30   3.11     28 31   4.64
              29 32   3.44     30 33   4.95     31 34   3.73
              32 35   5.27     33 36   3.77     34 37   4.80
              35 38   3.31     36 39   3.89     37 40   2.65
              38 41   3.01     39 42   2.04     40 43   2.31
              41 44   1.52     42 45   1.75     44 47   1.88
              46  1   1.05

 [PH,*,NY,*]   1  3   1.05      5  7    .43      9 11    .20
              11 13    .21     13 15    .40     14 16   6.49
              15 17  16.40     16 18   9.48     17 19  17.15
              18 20   9.31     19 21  15.20     20 22   8.21
              21 23  13.32     22 24   7.35     23 25  11.83
              24 26   6.61     25 27  10.61     26 28   6.05
              27 29   9.65     28 30   5.61     29 31   9.25
              30 32   5.40     31 33   8.24     32 34   4.84
              33 35   7.44     34 36   4.44     35 37   6.80
              36 38   4.11     37 39   6.25     38 40   3.69
              39 41   5.55     40 42   3.29     41 43   4.77
              42 44   2.91     43 45   4.19     44 46   2.53
              45 47   4.00     47 1    1.65

 [NY,*,BO,*]  10 16   1.23     12 18   3.84     14 20   4.08
              15 21   1.47     16 22   2.96     17 23   1.60
              18 24   2.95     19 25   1.71     20 26   2.81
              21 27   1.77     22 28   2.87     23 29   1.84
              24 30   2.95     25 31   1.91     26 32   3.12
              27 33   1.93     28 34   3.31     29 35   2.00
              30 36   3.40     31 37   2.08     32 38   3.41
              33 39   2.69     34 40   4.45     35 41   2.32
              36 42   3.40     37 43   1.80     38 44   2.63
              39 45   1.52     40 46   2.23     41 47   1.25
              42 48   1.79     43  1    .97     44  2   1.28
              45  3    .48     46  4    .68     48  6    .08

 [BO,*,NY,*]   7 13    .03      9 15   1.29     11 17   4.59
              12 18   2.56     13 19   3.92     14 20   2.37
              15 21   3.81     16 22   2.24     17 23   3.51
              18 24   2.13     19 25   3.28     20 26   2.05
              21 27   3.15     22 28   1.99     23 29   3.09
              24 30   1.93     25 31   3.19     26 32   1.91
              27 33   3.21     28 34   1.85     29 35   3.21
              30 36   1.71     31 37   3.04     32 38   2.08
              33 39   3.13     34 40   1.96     35 41   2.53
              36 42   1.43     37 43   2.04     38 44   1.12
              39 45   1.71     40 46    .91     41 47   1.32
              43  1   1.80     45  3   1.13     47  5    .23

 [NY,*,PH,*]   1  3    .04     12 14   4.68     13 15   5.61
              14 16   3.56     15 17   5.81     16 18   3.81
              17 19   6.31     18 20   4.07     19 21   7.33
              20 22   4.55     21 23   7.37     22 24   4.73
              23 25   7.61     24 26   4.92     25 27   7.91
              26 28   5.19     27 29   8.40     28 30   5.53
              29 31   9.32     30 32   5.51     31 33  10.33
              32 34   9.21     33 35  18.95     34 36  11.23
              35 37  16.85     36 38   7.29     37 39  10.89
              38 40   5.41     39 41   8.21     40 42   4.52
              41 43   6.99     42 44   3.92     43 45   6.21
              44 46   3.44     45 47   5.17     46 48   2.55
              47  1   1.24

 [PH,*,WA,*]   1  4    .20     14 17   4.49     15 18   3.53
              16 19   2.67     17 20   3.83     18 21   3.01
              19 22   4.12     20 23   3.15     21 24   4.67
              22 25   3.20     23 26   4.23     24 27   2.87
              25 28   3.84     26 29   2.60     27 30   3.80
              28 31   2.77     29 32   4.31     30 33   3.16
              31 34   4.88     32 35   3.45     33 36   5.55
              34 37   3.52     35 38   6.11     36 39   3.32
              37 40   5.53     38 41   3.03     39 42   4.51
              40 43   2.53     41 44   3.39     42 45   1.93
              43 46   2.52     44 47   1.20     45 48   1.75
              46  1    .88     47  2    .87     ;

*/

/* ---------- */

set Links := (BO,NY) (NY,PH) (PH,WA)
             (NY,BO) (PH,NY) (WA,PH) ;

set cities := BO NY PH WA ;

param Last := 48 ;

set times := 1 2 3 4 5 6 7 8 9 10 11 12 13 14 15 16 17 18 19 20 21 22 23 24 25 26 27 28 29 30 31 32 33 34 35 36 37 38 39 40 41 42 43 44 45 46 47 48;

set schedule :=

   (WA,*,PH,*)   2  5     6  9     8 11    10 13
                12 15    13 16    14 17    15 18
                16 19    17 20    18 21    19 22
                20 23    21 24    22 25    23 26
                24 27    25 28    26 29    27 30
                28 31    29 32    30 33    31 34
                32 35    33 36    34 37    35 38
                36 39    37 40    38 41    39 42
                40 43    41 44    42 45    44 47
                46  1

   (PH,*,NY,*)   1  3     5  7     9 11    11 13
                13 15    14 16    15 17    16 18
                17 19    18 20    19 21    20 22
                21 23    22 24    23 25    24 26
                25 27    26 28    27 29    28 30
                29 31    30 32    31 33    32 34
                33 35    34 36    35 37    36 38
                37 39    38 40    39 41    40 42
                41 43    42 44    43 45    44 46
                45 47    47  1

   (NY,*,BO,*)  10 16    12 18    14 20    15 21
                16 22    17 23    18 24    19 25
                20 26    21 27    22 28    23 29
                24 30    25 31    26 32    27 33
                28 34    29 35    30 36    31 37
                32 38    33 39    34 40    35 41
                36 42    37 43    38 44    39 45
                40 46    41 47    42 48    43  1
                44  2    45  3    46  4    48  6

   (BO,*,NY,*)   7 13     9 15    11 17    12 18
                13 19    14 20    15 21    16 22
                17 23    18 24    19 25    20 26
                21 27    22 28    23 29    24 30
                25 31    26 32    27 33    28 34
                29 35    30 36    31 37    32 38
                33 39    34 40    35 41    36 42
                37 43    38 44    39 45    40 46
                41 47    43  1    45  3    47  5

   (NY,*,PH,*)   1  3    12 14    13 15    14 16
                15 17    16 18    17 19    18 20
                19 21    20 22    21 23    22 24
                23 25    24 26    25 27    26 28
                27 29    28 30    29 31    30 32
                31 33    32 34    33 35    34 36
                35 37    36 38    37 39    38 40
                39 41    40 42    41 43    42 44
                43 45    44 46    45 47    46 48
                47  1

   (PH,*,WA,*)   1  4    14 17    15 18    16 19
                17 20    18 21    19 22    20 23
                21 24    22 25    23 26    24 27
                25 28    26 29    27 30    28 31
                29 32    30 33    31 34    32 35
                33 36    34 37    35 38    36 39
                37 40    38 41    39 42    40 43
                41 44    42 45    43 46    44 47
                45 48    46  1    47  2    ;

param High := 

	[WA,2,PH,5] 2.000000
	[WA,6,PH,9] 2.000000
	[WA,8,PH,11] 2.000000
	[WA,10,PH,13] 2.000000
	[WA,12,PH,15] 4.000000
	[WA,13,PH,16] 4.000000
	[WA,14,PH,17] 11.000000
	[WA,15,PH,18] 8.000000
	[WA,16,PH,19] 13.000000
	[WA,17,PH,20] 8.000000
	[WA,18,PH,21] 12.000000
	[WA,19,PH,22] 7.000000
	[WA,20,PH,23] 10.000000
	[WA,21,PH,24] 6.000000
	[WA,22,PH,25] 9.000000
	[WA,23,PH,26] 6.000000
	[WA,24,PH,27] 9.000000
	[WA,25,PH,28] 6.000000
	[WA,26,PH,29] 9.000000
	[WA,27,PH,30] 7.000000
	[WA,28,PH,31] 10.000000
	[WA,29,PH,32] 7.000000
	[WA,30,PH,33] 10.000000
	[WA,31,PH,34] 8.000000
	[WA,32,PH,35] 11.000000
	[WA,33,PH,36] 8.000000
	[WA,34,PH,37] 10.000000
	[WA,35,PH,38] 7.000000
	[WA,36,PH,39] 8.000000
	[WA,37,PH,40] 6.000000
	[WA,38,PH,41] 7.000000
	[WA,39,PH,42] 5.000000
	[WA,40,PH,43] 5.000000
	[WA,41,PH,44] 4.000000
	[WA,42,PH,45] 4.000000
	[WA,44,PH,47] 4.000000
	[WA,46,PH,1] 3.000000
	[PH,1,NY,3] 3.000000
	[PH,5,NY,7] 2.000000
	[PH,9,NY,11] 2.000000
	[PH,11,NY,13] 2.000000
	[PH,13,NY,15] 2.000000
	[PH,14,NY,16] 13.000000
	[PH,15,NY,17] 28.000000
	[PH,16,NY,18] 14.000000
	[PH,17,NY,19] 28.000000
	[PH,18,NY,20] 14.000000
	[PH,19,NY,21] 28.000000
	[PH,20,NY,22] 14.000000
	[PH,21,NY,23] 14.000000
	[PH,22,NY,24] 14.000000
	[PH,23,NY,25] 14.000000
	[PH,24,NY,26] 14.000000
	[PH,25,NY,27] 14.000000
	[PH,26,NY,28] 13.000000
	[PH,27,NY,29] 14.000000
	[PH,28,NY,30] 12.000000
	[PH,29,NY,31] 14.000000
	[PH,30,NY,32] 11.000000
	[PH,31,NY,33] 14.000000
	[PH,32,NY,34] 10.000000
	[PH,33,NY,35] 14.000000
	[PH,34,NY,36] 9.000000
	[PH,35,NY,37] 14.000000
	[PH,36,NY,38] 9.000000
	[PH,37,NY,39] 13.000000
	[PH,38,NY,40] 8.000000
	[PH,39,NY,41] 12.000000
	[PH,40,NY,42] 7.000000
	[PH,41,NY,43] 10.000000
	[PH,42,NY,44] 6.000000
	[PH,43,NY,45] 9.000000
	[PH,44,NY,46] 6.000000
	[PH,45,NY,47] 8.000000
	[PH,47,NY,1] 4.000000
	[NY,10,BO,16] 3.000000
	[NY,12,BO,18] 8.000000
	[NY,14,BO,20] 9.000000
	[NY,15,BO,21] 3.000000
	[NY,16,BO,22] 6.000000
	[NY,17,BO,23] 4.000000
	[NY,18,BO,24] 6.000000
	[NY,19,BO,25] 4.000000
	[NY,20,BO,26] 6.000000
	[NY,21,BO,27] 4.000000
	[NY,22,BO,28] 6.000000
	[NY,23,BO,29] 4.000000
	[NY,24,BO,30] 6.000000
	[NY,25,BO,31] 4.000000
	[NY,26,BO,32] 7.000000
	[NY,27,BO,33] 4.000000
	[NY,28,BO,34] 7.000000
	[NY,29,BO,35] 4.000000
	[NY,30,BO,36] 7.000000
	[NY,31,BO,37] 5.000000
	[NY,32,BO,38] 7.000000
	[NY,33,BO,39] 6.000000
	[NY,34,BO,40] 9.000000
	[NY,35,BO,41] 5.000000
	[NY,36,BO,42] 7.000000
	[NY,37,BO,43] 4.000000
	[NY,38,BO,44] 6.000000
	[NY,39,BO,45] 4.000000
	[NY,40,BO,46] 5.000000
	[NY,41,BO,47] 3.000000
	[NY,42,BO,48] 4.000000
	[NY,43,BO,1] 2.000000
	[NY,44,BO,2] 3.000000
	[NY,45,BO,3] 2.000000
	[NY,46,BO,4] 2.000000
	[NY,48,BO,6] 2.000000
	[BO,7,NY,13] 2.000000
	[BO,9,NY,15] 3.000000
	[BO,11,NY,17] 10.000000
	[BO,12,NY,18] 6.000000
	[BO,13,NY,19] 8.000000
	[BO,14,NY,20] 5.000000
	[BO,15,NY,21] 8.000000
	[BO,16,NY,22] 5.000000
	[BO,17,NY,23] 8.000000
	[BO,18,NY,24] 5.000000
	[BO,19,NY,25] 7.000000
	[BO,20,NY,26] 5.000000
	[BO,21,NY,27] 7.000000
	[BO,22,NY,28] 4.000000
	[BO,23,NY,29] 7.000000
	[BO,24,NY,30] 4.000000
	[BO,25,NY,31] 7.000000
	[BO,26,NY,32] 4.000000
	[BO,27,NY,33] 7.000000
	[BO,28,NY,34] 4.000000
	[BO,29,NY,35] 7.000000
	[BO,30,NY,36] 4.000000
	[BO,31,NY,37] 7.000000
	[BO,32,NY,38] 5.000000
	[BO,33,NY,39] 7.000000
	[BO,34,NY,40] 4.000000
	[BO,35,NY,41] 6.000000
	[BO,36,NY,42] 3.000000
	[BO,37,NY,43] 5.000000
	[BO,38,NY,44] 3.000000
	[BO,39,NY,45] 4.000000
	[BO,40,NY,46] 2.000000
	[BO,41,NY,47] 3.000000
	[BO,43,NY,1] 4.000000
	[BO,45,NY,3] 3.000000
	[BO,47,NY,5] 2.000000
	[NY,1,PH,3] 2.000000
	[NY,12,PH,14] 10.000000
	[NY,13,PH,15] 12.000000
	[NY,14,PH,16] 8.000000
	[NY,15,PH,17] 12.000000
	[NY,16,PH,18] 8.000000
	[NY,17,PH,19] 13.000000
	[NY,18,PH,20] 9.000000
	[NY,19,PH,21] 14.000000
	[NY,20,PH,22] 10.000000
	[NY,21,PH,23] 14.000000
	[NY,22,PH,24] 10.000000
	[NY,23,PH,25] 14.000000
	[NY,24,PH,26] 10.000000
	[NY,25,PH,27] 14.000000
	[NY,26,PH,28] 11.000000
	[NY,27,PH,29] 14.000000
	[NY,28,PH,30] 12.000000
	[NY,29,PH,31] 14.000000
	[NY,30,PH,32] 12.000000
	[NY,31,PH,33] 14.000000
	[NY,32,PH,34] 14.000000
	[NY,33,PH,35] 28.000000
	[NY,34,PH,36] 14.000000
	[NY,35,PH,37] 28.000000
	[NY,36,PH,38] 14.000000
	[NY,37,PH,39] 14.000000
	[NY,38,PH,40] 11.000000
	[NY,39,PH,41] 14.000000
	[NY,40,PH,42] 10.000000
	[NY,41,PH,43] 14.000000
	[NY,42,PH,44] 8.000000
	[NY,43,PH,45] 13.000000
	[NY,44,PH,46] 7.000000
	[NY,45,PH,47] 11.000000
	[NY,46,PH,48] 6.000000
	[NY,47,PH,1] 3.000000
	[PH,1,WA,4] 2.000000
	[PH,14,WA,17] 9.000000
	[PH,15,WA,18] 8.000000
	[PH,16,WA,19] 6.000000
	[PH,17,WA,20] 8.000000
	[PH,18,WA,21] 7.000000
	[PH,19,WA,22] 9.000000
	[PH,20,WA,23] 7.000000
	[PH,21,WA,24] 10.000000
	[PH,22,WA,25] 7.000000
	[PH,23,WA,26] 9.000000
	[PH,24,WA,27] 6.000000
	[PH,25,WA,28] 8.000000
	[PH,26,WA,29] 6.000000
	[PH,27,WA,30] 8.000000
	[PH,28,WA,31] 6.000000
	[PH,29,WA,32] 9.000000
	[PH,30,WA,33] 7.000000
	[PH,31,WA,34] 10.000000
	[PH,32,WA,35] 7.000000
	[PH,33,WA,36] 12.000000
	[PH,34,WA,37] 8.000000
	[PH,35,WA,38] 13.000000
	[PH,36,WA,39] 7.000000
	[PH,37,WA,40] 12.000000
	[PH,38,WA,41] 7.000000
	[PH,39,WA,42] 10.000000
	[PH,40,WA,43] 6.000000
	[PH,41,WA,44] 7.000000
	[PH,42,WA,45] 4.000000
	[PH,43,WA,46] 6.000000
	[PH,44,WA,47] 3.000000
	[PH,45,WA,48] 4.000000
	[PH,46,WA,1] 2.000000
	[PH,47,WA,2] 2.000000;


param Low := 

	[WA,2,PH,5] 1.000000
	[WA,6,PH,9] 1.000000
	[WA,8,PH,11] 1.000000
	[WA,10,PH,13] 1.000000
	[WA,12,PH,15] 2.000000
	[WA,13,PH,16] 2.000000
	[WA,14,PH,17] 6.000000
	[WA,15,PH,18] 4.000000
	[WA,16,PH,19] 7.000000
	[WA,17,PH,20] 4.000000
	[WA,18,PH,21] 6.000000
	[WA,19,PH,22] 4.000000
	[WA,20,PH,23] 5.000000
	[WA,21,PH,24] 3.000000
	[WA,22,PH,25] 5.000000
	[WA,23,PH,26] 3.000000
	[WA,24,PH,27] 5.000000
	[WA,25,PH,28] 3.000000
	[WA,26,PH,29] 5.000000
	[WA,27,PH,30] 4.000000
	[WA,28,PH,31] 5.000000
	[WA,29,PH,32] 4.000000
	[WA,30,PH,33] 5.000000
	[WA,31,PH,34] 4.000000
	[WA,32,PH,35] 6.000000
	[WA,33,PH,36] 4.000000
	[WA,34,PH,37] 5.000000
	[WA,35,PH,38] 4.000000
	[WA,36,PH,39] 4.000000
	[WA,37,PH,40] 3.000000
	[WA,38,PH,41] 4.000000
	[WA,39,PH,42] 3.000000
	[WA,40,PH,43] 3.000000
	[WA,41,PH,44] 2.000000
	[WA,42,PH,45] 2.000000
	[WA,44,PH,47] 2.000000
	[WA,46,PH,1] 2.000000
	[PH,1,NY,3] 2.000000
	[PH,5,NY,7] 1.000000
	[PH,9,NY,11] 1.000000
	[PH,11,NY,13] 1.000000
	[PH,13,NY,15] 1.000000
	[PH,14,NY,16] 7.000000
	[PH,15,NY,17] 17.000000
	[PH,16,NY,18] 10.000000
	[PH,17,NY,19] 18.000000
	[PH,18,NY,20] 10.000000
	[PH,19,NY,21] 16.000000
	[PH,20,NY,22] 9.000000
	[PH,21,NY,23] 14.000000
	[PH,22,NY,24] 8.000000
	[PH,23,NY,25] 12.000000
	[PH,24,NY,26] 7.000000
	[PH,25,NY,27] 11.000000
	[PH,26,NY,28] 7.000000
	[PH,27,NY,29] 10.000000
	[PH,28,NY,30] 6.000000
	[PH,29,NY,31] 10.000000
	[PH,30,NY,32] 6.000000
	[PH,31,NY,33] 9.000000
	[PH,32,NY,34] 5.000000
	[PH,33,NY,35] 8.000000
	[PH,34,NY,36] 5.000000
	[PH,35,NY,37] 7.000000
	[PH,36,NY,38] 5.000000
	[PH,37,NY,39] 7.000000
	[PH,38,NY,40] 4.000000
	[PH,39,NY,41] 6.000000
	[PH,40,NY,42] 4.000000
	[PH,41,NY,43] 5.000000
	[PH,42,NY,44] 3.000000
	[PH,43,NY,45] 5.000000
	[PH,44,NY,46] 3.000000
	[PH,45,NY,47] 4.000000
	[PH,47,NY,1] 2.000000
	[NY,10,BO,16] 2.000000
	[NY,12,BO,18] 4.000000
	[NY,14,BO,20] 5.000000
	[NY,15,BO,21] 2.000000
	[NY,16,BO,22] 3.000000
	[NY,17,BO,23] 2.000000
	[NY,18,BO,24] 3.000000
	[NY,19,BO,25] 2.000000
	[NY,20,BO,26] 3.000000
	[NY,21,BO,27] 2.000000
	[NY,22,BO,28] 3.000000
	[NY,23,BO,29] 2.000000
	[NY,24,BO,30] 3.000000
	[NY,25,BO,31] 2.000000
	[NY,26,BO,32] 4.000000
	[NY,27,BO,33] 2.000000
	[NY,28,BO,34] 4.000000
	[NY,29,BO,35] 2.000000
	[NY,30,BO,36] 4.000000
	[NY,31,BO,37] 3.000000
	[NY,32,BO,38] 4.000000
	[NY,33,BO,39] 3.000000
	[NY,34,BO,40] 5.000000
	[NY,35,BO,41] 3.000000
	[NY,36,BO,42] 4.000000
	[NY,37,BO,43] 2.000000
	[NY,38,BO,44] 3.000000
	[NY,39,BO,45] 2.000000
	[NY,40,BO,46] 3.000000
	[NY,41,BO,47] 2.000000
	[NY,42,BO,48] 2.000000
	[NY,43,BO,1] 1.000000
	[NY,44,BO,2] 2.000000
	[NY,45,BO,3] 1.000000
	[NY,46,BO,4] 1.000000
	[NY,48,BO,6] 1.000000
	[BO,7,NY,13] 1.000000
	[BO,9,NY,15] 2.000000
	[BO,11,NY,17] 5.000000
	[BO,12,NY,18] 3.000000
	[BO,13,NY,19] 4.000000
	[BO,14,NY,20] 3.000000
	[BO,15,NY,21] 4.000000
	[BO,16,NY,22] 3.000000
	[BO,17,NY,23] 4.000000
	[BO,18,NY,24] 3.000000
	[BO,19,NY,25] 4.000000
	[BO,20,NY,26] 3.000000
	[BO,21,NY,27] 4.000000
	[BO,22,NY,28] 2.000000
	[BO,23,NY,29] 4.000000
	[BO,24,NY,30] 2.000000
	[BO,25,NY,31] 4.000000
	[BO,26,NY,32] 2.000000
	[BO,27,NY,33] 4.000000
	[BO,28,NY,34] 2.000000
	[BO,29,NY,35] 4.000000
	[BO,30,NY,36] 2.000000
	[BO,31,NY,37] 4.000000
	[BO,32,NY,38] 3.000000
	[BO,33,NY,39] 4.000000
	[BO,34,NY,40] 2.000000
	[BO,35,NY,41] 3.000000
	[BO,36,NY,42] 2.000000
	[BO,37,NY,43] 3.000000
	[BO,38,NY,44] 2.000000
	[BO,39,NY,45] 2.000000
	[BO,40,NY,46] 1.000000
	[BO,41,NY,47] 2.000000
	[BO,43,NY,1] 2.000000
	[BO,45,NY,3] 2.000000
	[BO,47,NY,5] 1.000000
	[NY,1,PH,3] 1.000000
	[NY,12,PH,14] 5.000000
	[NY,13,PH,15] 6.000000
	[NY,14,PH,16] 4.000000
	[NY,15,PH,17] 6.000000
	[NY,16,PH,18] 4.000000
	[NY,17,PH,19] 7.000000
	[NY,18,PH,20] 5.000000
	[NY,19,PH,21] 8.000000
	[NY,20,PH,22] 5.000000
	[NY,21,PH,23] 8.000000
	[NY,22,PH,24] 5.000000
	[NY,23,PH,25] 8.000000
	[NY,24,PH,26] 5.000000
	[NY,25,PH,27] 8.000000
	[NY,26,PH,28] 6.000000
	[NY,27,PH,29] 9.000000
	[NY,28,PH,30] 6.000000
	[NY,29,PH,31] 10.000000
	[NY,30,PH,32] 6.000000
	[NY,31,PH,33] 11.000000
	[NY,32,PH,34] 10.000000
	[NY,33,PH,35] 19.000000
	[NY,34,PH,36] 12.000000
	[NY,35,PH,37] 17.000000
	[NY,36,PH,38] 8.000000
	[NY,37,PH,39] 11.000000
	[NY,38,PH,40] 6.000000
	[NY,39,PH,41] 9.000000
	[NY,40,PH,42] 5.000000
	[NY,41,PH,43] 7.000000
	[NY,42,PH,44] 4.000000
	[NY,43,PH,45] 7.000000
	[NY,44,PH,46] 4.000000
	[NY,45,PH,47] 6.000000
	[NY,46,PH,48] 3.000000
	[NY,47,PH,1] 2.000000
	[PH,1,WA,4] 1.000000
	[PH,14,WA,17] 5.000000
	[PH,15,WA,18] 4.000000
	[PH,16,WA,19] 3.000000
	[PH,17,WA,20] 4.000000
	[PH,18,WA,21] 4.000000
	[PH,19,WA,22] 5.000000
	[PH,20,WA,23] 4.000000
	[PH,21,WA,24] 5.000000
	[PH,22,WA,25] 4.000000
	[PH,23,WA,26] 5.000000
	[PH,24,WA,27] 3.000000
	[PH,25,WA,28] 4.000000
	[PH,26,WA,29] 3.000000
	[PH,27,WA,30] 4.000000
	[PH,28,WA,31] 3.000000
	[PH,29,WA,32] 5.000000
	[PH,30,WA,33] 4.000000
	[PH,31,WA,34] 5.000000
	[PH,32,WA,35] 4.000000
	[PH,33,WA,36] 6.000000
	[PH,34,WA,37] 4.000000
	[PH,35,WA,38] 7.000000
	[PH,36,WA,39] 4.000000
	[PH,37,WA,40] 6.000000
	[PH,38,WA,41] 4.000000
	[PH,39,WA,42] 5.000000
	[PH,40,WA,43] 3.000000
	[PH,41,WA,44] 4.000000
	[PH,42,WA,45] 2.000000
	[PH,43,WA,46] 3.000000
	[PH,44,WA,47] 2.000000
	[PH,45,WA,48] 2.000000
	[PH,46,WA,1] 1.000000
	[PH,47,WA,2] 1.000000;

param Distance :=
	[BO,NY] 232.000000
	[NY,PH] 90.000000
	[PH,WA] 135.000000
	[NY,BO] 232.000000
	[PH,NY] 90.000000
	[WA,PH] 135.000000;


